(set-logic ALL)
(declare-fun var0 () String)
(assert (str.in_re var0 (re.++ (re.* (re.+ (re.* (re.* (re.union (re.* (re.union (re.* (re.* (str.to_re "000"))) (re.* (re.+ (str.to_re "11"))))) (re.* (re.+ (re.* (re.union (str.to_re "222") (str.to_re "333")))))))))) (re.union (re.+ (re.+ (re.* (re.* (re.+ (re.union (re.+ (re.union (str.to_re "44") (str.to_re "555"))) (re.+ (re.union (str.to_re "66") (str.to_re "77"))))))))) (re.+ (re.union (re.union (re.+ (re.* (re.union (re.+ (re.+ (str.to_re "88"))) (re.+ (re.* (str.to_re "9")))))) (re.+ (re.* (re.+ (re.* (re.+ (str.to_re "a"))))))) (re.union (re.* (re.+ (re.union (re.union (re.+ (str.to_re "b")) (re.+ (str.to_re "cc"))) (re.union (re.+ (str.to_re "ddd")) (re.+ (str.to_re "e")))))) (re.* (re.* (re.+ (re.* (re.+ (str.to_re "ff")))))))))))))
(assert (<= 15 (str.len var0)))
(check-sat)